data/MCDM/NO_CORR/GEN_FROM_60/15_ITEMS_1000_GEN/K5015W01.KNP.mps
NAME          BLANK   
ROWS
 N  OBJROW
 L  R0000000
COLUMNS
    C0000000  OBJROW     -786.         R0000000  412.        
    C0000001  OBJROW     -760.         R0000000  921.        
    C0000002  OBJROW     -905.         R0000000  661.        
    C0000003  OBJROW     -849.         R0000000  389.        
    C0000004  OBJROW     -239.         R0000000  878.        
    C0000005  OBJROW     -629.         R0000000  512.        
    C0000006  OBJROW     -441.         R0000000  341.        
    C0000007  OBJROW     -458.         R0000000  297.        
    C0000008  OBJROW     -913.         R0000000  162.        
    C0000009  OBJROW     -128.         R0000000  49.         
    C0000010  OBJROW     -403.         R0000000  200.        
    C0000011  OBJROW     -285.         R0000000  857.        
    C0000012  OBJROW     -414.         R0000000  589.        
    C0000013  OBJROW     -278.         R0000000  133.        
    C0000014  OBJROW     -499.         R0000000  250.        
RHS
    RHS       R0000000  14156.      
BOUNDS
 BV BOUND     C0000000  1.          
 BV BOUND     C0000001  1.          
 BV BOUND     C0000002  1.          
 BV BOUND     C0000003  1.          
 BV BOUND     C0000004  1.          
 BV BOUND     C0000005  1.          
 BV BOUND     C0000006  1.          
 BV BOUND     C0000007  1.          
 BV BOUND     C0000008  1.          
 BV BOUND     C0000009  1.          
 BV BOUND     C0000010  1.          
 BV BOUND     C0000011  1.          
 BV BOUND     C0000012  1.          
 BV BOUND     C0000013  1.          
 BV BOUND     C0000014  1.          
ENDATA
