interdiction/MCDM/NO_CORR/GEN_FROM_60/15_ITEMS_1000_GEN/K5015W01.KNP.txt
N 15
M 16
LC 15
LC 16
LC 17
LC 18
LC 19
LC 20
LC 21
LC 22
LC 23
LC 24
LC 25
LC 26
LC 27
LC 28
LC 29
LR 1
LR 2
LR 3
LR 4
LR 5
LR 6
LR 7
LR 8
LR 9
LR 10
LR 11
LR 12
LR 13
LR 14
LR 15
LR 16
LO -786
LO -760
LO -905
LO -849
LO -239
LO -629
LO -441
LO -458
LO -913
LO -128
LO -403
LO -285
LO -414
LO -278
LO -499
OS 1
IC 680
IC 755
IC 432
IC 442
IC 991
IC 215
IC 88
IC 669
IC 606
IC 189
IC 54
IC 225
IC 502
IC 803
IC 766
IB 3709
